\ Model Cl_45_Ins_10.lp
\ LP format - for model browsing. Use MPS format to capture full model detail.
Maximize
 
Subject To
 obj1: y[0] = 0
 obj2: y[1] = 0
 obj1_Exp: - y[0] + 99 x[0] + 98 x[1] + 97 x[2] + 95 x[3] + 89 x[4]
   + 85 x[5] + 84 x[6] + 80 x[7] + 80 x[8] + 78 x[9] + 69 x[10] + 69 x[11]
   + 68 x[12] + 68 x[13] + 62 x[14] + 54 x[15] + 50 x[16] + 48 x[17]
   + 48 x[18] + 46 x[19] + 46 x[20] + 45 x[21] + 45 x[22] + 38 x[23]
   + 36 x[24] + 32 x[25] + 30 x[26] + 30 x[27] + 25 x[28] + 25 x[29]
   + 23 x[30] + 22 x[31] + 19 x[32] + 19 x[33] + 18 x[34] + 17 x[35]
   + 17 x[36] + 16 x[37] + 15 x[38] + 13 x[39] + 13 x[40] + 12 x[41]
   + 8 x[42] + 8 x[43] + 7 x[44] = 0
 obj2_Exp: - y[1] + 6 x[0] + 27 x[1] + 86 x[2] + 57 x[3] + 61 x[4]
   + 18 x[5] + 36 x[6] + 60 x[7] + 56 x[8] + 97 x[9] + 72 x[10] + 5 x[11]
   + 20 x[12] + 40 x[13] + 30 x[14] + 92 x[15] + 39 x[16] + 58 x[17]
   + 50 x[18] + 65 x[19] + 36 x[20] + 30 x[21] + 93 x[22] + 16 x[23]
   + 49 x[24] + 89 x[25] + 53 x[26] + 19 x[27] + 24 x[28] + 95 x[29]
   + 86 x[30] + 63 x[31] + 77 x[32] + 14 x[33] + 75 x[34] + 71 x[35]
   + 66 x[36] + 14 x[37] + 15 x[38] + 18 x[39] + 43 x[40] + 76 x[41]
   + 7 x[42] + 62 x[43] + 37 x[44] = 0
 Budget: 109 x[0] + 108 x[1] + 107 x[2] + 105 x[3] + 99 x[4] + 95 x[5]
   + 94 x[6] + 90 x[7] + 90 x[8] + 88 x[9] + 79 x[10] + 79 x[11] + 78 x[12]
   + 78 x[13] + 72 x[14] + 64 x[15] + 60 x[16] + 58 x[17] + 58 x[18]
   + 56 x[19] + 56 x[20] + 55 x[21] + 55 x[22] + 48 x[23] + 46 x[24]
   + 42 x[25] + 40 x[26] + 40 x[27] + 35 x[28] + 35 x[29] + 33 x[30]
   + 32 x[31] + 29 x[32] + 29 x[33] + 28 x[34] + 27 x[35] + 27 x[36]
   + 26 x[37] + 25 x[38] + 23 x[39] + 23 x[40] + 22 x[41] + 18 x[42]
   + 18 x[43] + 17 x[44] <= 1139
Bounds
Binaries
 x[0] x[1] x[2] x[3] x[4] x[5] x[6] x[7] x[8] x[9] x[10] x[11] x[12] x[13]
 x[14] x[15] x[16] x[17] x[18] x[19] x[20] x[21] x[22] x[23] x[24] x[25]
 x[26] x[27] x[28] x[29] x[30] x[31] x[32] x[33] x[34] x[35] x[36] x[37]
 x[38] x[39] x[40] x[41] x[42] x[43] x[44]
Generals
 y[0] y[1]
End
